NAME          
ROWS
 N  OBJ
 L  c1
 L  c2
 L  c3
 L  c4
 L  c5
COLUMNS
    MARKER    'MARKER'                 'INTORG'
    x[1]      c1        491
    x[1]      c2        959
    x[1]      c3        610
    x[1]      c4        283
    x[1]      c5        968
    x[1]      OBJ       -624
    x[2]      c1        718
    x[2]      c2        612
    x[2]      c3        921
    x[2]      c4        708
    x[2]      c5        734
    x[2]      OBJ       -983
    x[3]      c1        170
    x[3]      c2        283
    x[3]      c3        160
    x[3]      c4        884
    x[3]      c5        956
    x[3]      OBJ       -21
    x[4]      c1        169
    x[4]      c2        959
    x[4]      c3        233
    x[4]      c4        249
    x[4]      c5        462
    x[4]      OBJ       -766
    x[5]      c1        720
    x[5]      c2        513
    x[5]      c3        457
    x[5]      c4        244
    x[5]      c5        614
    x[5]      OBJ       -386
    x[6]      c1        42
    x[6]      c2        792
    x[6]      c3        889
    x[6]      c4        355
    x[6]      c5        319
    x[6]      OBJ       -601
    x[7]      c1        12
    x[7]      c2        211
    x[7]      c3        352
    x[7]      c4        265
    x[7]      c5        661
    x[7]      OBJ       -457
    x[8]      c1        379
    x[8]      c2        390
    x[8]      c3        975
    x[8]      c4        53
    x[8]      c5        627
    x[8]      OBJ       -731
    x[9]      c1        897
    x[9]      c2        278
    x[9]      c3        982
    x[9]      c4        258
    x[9]      c5        916
    x[9]      OBJ       -418
    x[10]     c1        676
    x[10]     c2        136
    x[10]     c3        934
    x[10]     c4        687
    x[10]     c5        167
    x[10]     OBJ       -834
    x[11]     c1        696
    x[11]     c2        135
    x[11]     c3        473
    x[11]     c4        169
    x[11]     c5        983
    x[11]     OBJ       -720
    x[12]     c1        56
    x[12]     c2        491
    x[12]     c3        831
    x[12]     c4        927
    x[12]     c5        601
    x[12]     OBJ       -804
    x[13]     c1        729
    x[13]     c2        945
    x[13]     c3        252
    x[13]     c4        104
    x[13]     c5        931
    x[13]     OBJ       -928
    x[14]     c1        111
    x[14]     c2        978
    x[14]     c3        864
    x[14]     c4        795
    x[14]     c5        932
    x[14]     OBJ       -66
    x[15]     c1        606
    x[15]     c2        669
    x[15]     c3        169
    x[15]     c4        566
    x[15]     c5        679
    x[15]     OBJ       -495
    x[16]     c1        99
    x[16]     c2        214
    x[16]     c3        179
    x[16]     c4        984
    x[16]     c5        917
    x[16]     OBJ       -548
    x[17]     c1        795
    x[17]     c2        366
    x[17]     c3        280
    x[17]     c4        183
    x[17]     c5        565
    x[17]     OBJ       -27
    x[18]     c1        944
    x[18]     c2        519
    x[18]     c3        142
    x[18]     c4        333
    x[18]     c5        952
    x[18]     OBJ       -504
    x[19]     c1        386
    x[19]     c2        273
    x[19]     c3        322
    x[19]     c4        934
    x[19]     c5        538
    x[19]     OBJ       -260
    x[20]     c1        225
    x[20]     c2        768
    x[20]     c3        473
    x[20]     c4        145
    x[20]     c5        750
    x[20]     OBJ       -301
    x[21]     c1        456
    x[21]     c2        184
    x[21]     c3        920
    x[21]     c4        275
    x[21]     c5        574
    x[21]     OBJ       -491
    x[22]     c1        99
    x[22]     c2        479
    x[22]     c3        318
    x[22]     c4        71
    x[22]     c5        501
    x[22]     OBJ       -267
    x[23]     c1        229
    x[23]     c2        5
    x[23]     c3        38
    x[23]     c4        111
    x[23]     c5        349
    x[23]     OBJ       -605
    x[24]     c1        985
    x[24]     c2        705
    x[24]     c3        6
    x[24]     c4        121
    x[24]     c5        54
    x[24]     OBJ       -715
    x[25]     c1        986
    x[25]     c2        458
    x[25]     c3        439
    x[25]     c4        332
    x[25]     c5        216
    x[25]     OBJ       -938
    x[26]     c1        707
    x[26]     c2        510
    x[26]     c3        108
    x[26]     c4        682
    x[26]     c5        399
    x[26]     OBJ       -525
    x[27]     c1        425
    x[27]     c2        170
    x[27]     c3        450
    x[27]     c4        713
    x[27]     c5        469
    x[27]     OBJ       -312
    x[28]     c1        962
    x[28]     c2        730
    x[28]     c3        560
    x[28]     c4        439
    x[28]     c5        721
    x[28]     OBJ       -815
    x[29]     c1        811
    x[29]     c2        676
    x[29]     c3        870
    x[29]     c4        451
    x[29]     c5        61
    x[29]     OBJ       -153
    x[30]     c1        145
    x[30]     c2        726
    x[30]     c3        718
    x[30]     c4        895
    x[30]     c5        380
    x[30]     OBJ       -593
    x[31]     c1        714
    x[31]     c2        248
    x[31]     c3        432
    x[31]     c4        209
    x[31]     c5        941
    x[31]     OBJ       -976
    x[32]     c1        983
    x[32]     c2        213
    x[32]     c3        344
    x[32]     c4        693
    x[32]     c5        212
    x[32]     OBJ       -425
    x[33]     c1        934
    x[33]     c2        541
    x[33]     c3        645
    x[33]     c4        845
    x[33]     c5        86
    x[33]     OBJ       -708
    x[34]     c1        524
    x[34]     c2        413
    x[34]     c3        78
    x[34]     c4        964
    x[34]     c5        318
    x[34]     OBJ       -864
    x[35]     c1        8
    x[35]     c2        167
    x[35]     c3        250
    x[35]     c4        272
    x[35]     c5        161
    x[35]     OBJ       -779
    x[36]     c1        317
    x[36]     c2        584
    x[36]     c3        64
    x[36]     c4        13
    x[36]     c5        375
    x[36]     OBJ       -27
    x[37]     c1        567
    x[37]     c2        717
    x[37]     c3        558
    x[37]     c4        83
    x[37]     c5        707
    x[37]     OBJ       -28
    x[38]     c1        212
    x[38]     c2        487
    x[38]     c3        88
    x[38]     c4        855
    x[38]     c5        595
    x[38]     OBJ       -29
    x[39]     c1        183
    x[39]     c2        765
    x[39]     c3        648
    x[39]     c4        567
    x[39]     c5        695
    x[39]     OBJ       -151
    x[40]     c1        647
    x[40]     c2        963
    x[40]     c3        497
    x[40]     c4        985
    x[40]     c5        6
    x[40]     OBJ       -192
RHS
    rhs       c1        9908
    rhs       c2        10116
    rhs       c3        9264
    rhs       c4        9351
    rhs       c5        11046
RANGES
BOUNDS
 BV bounds    x[1]
 BV bounds    x[2]
 BV bounds    x[3]
 BV bounds    x[4]
 BV bounds    x[5]
 BV bounds    x[6]
 BV bounds    x[7]
 BV bounds    x[8]
 BV bounds    x[9]
 BV bounds    x[10]
 BV bounds    x[11]
 BV bounds    x[12]
 BV bounds    x[13]
 BV bounds    x[14]
 BV bounds    x[15]
 BV bounds    x[16]
 BV bounds    x[17]
 BV bounds    x[18]
 BV bounds    x[19]
 BV bounds    x[20]
 BV bounds    x[21]
 BV bounds    x[22]
 BV bounds    x[23]
 BV bounds    x[24]
 BV bounds    x[25]
 BV bounds    x[26]
 BV bounds    x[27]
 BV bounds    x[28]
 BV bounds    x[29]
 BV bounds    x[30]
 BV bounds    x[31]
 BV bounds    x[32]
 BV bounds    x[33]
 BV bounds    x[34]
 BV bounds    x[35]
 BV bounds    x[36]
 BV bounds    x[37]
 BV bounds    x[38]
 BV bounds    x[39]
 BV bounds    x[40]
ENDATA
